100 5
25 200
20
30
10
40
20
20
20
10
20
30
40
20
10
10
20
20
20
20
40
10
10
40
30
10
20
30
20
10
10
10
20
10
10
30
20
40
10
30
10
30
20
10
20
10
10
10
10
10
10
30
19
3
5
16
16
19
23
20
19
17
9
3
6
17
16
16
9
21
27
23
14
8
5
8
16
31
7
27
30
13
10
9
14
18
2
28
13
19
25
6
13
14
3
23
6
26
35
9
15
3
40 50 0 240 0 0
25 85 71 191 10 3
22 75 30 150 10 3
22 85 64 184 10 1
20 80 151 161 10 1
20 85 40 160 10 3
18 75 96 123 10 2
15 75 35 155 10 2
15 80 101 111 10 3
10 35 101 111 10 2
10 40 123 144 10 1
8 40 69 79 10 3
8 45 32 152 10 3
5 35 152 162 10 2
5 45 35 117 10 3
2 40 68 78 10 1
0 40 59 114 10 1
0 45 147 180 10 1
44 5 79 124 10 2
42 10 58 115 10 1
42 15 111 162 10 1
40 5 45 165 10 1
40 15 94 119 10 3
38 5 75 85 10 3
38 15 128 194 10 1
35 5 171 181 10 1
95 30 58 171 10 1
95 35 60 93 10 2
92 30 55 120 10 3
90 35 52 112 10 3
88 30 75 102 10 2
88 35 50 170 10 1
87 30 116 175 10 3
85 25 51 85 10 1
85 35 62 182 10 2
67 85 138 169 10 3
65 85 43 78 10 1
65 82 69 189 10 1
62 80 85 95 10 2
60 80 36 74 10 1
60 85 87 112 10 1
58 75 92 121 10 1
55 80 33 66 10 1
55 85 117 168 10 1
55 82 74 84 10 2
20 82 37 72 10 2
18 80 98 157 10 2
2 45 38 109 10 2
42 5 64 184 10 3
42 12 109 128 10 2
72 35 71 191 10 1
55 20 69 126 10 1
25 30 25 145 10 3
20 50 101 111 10 2
55 60 127 180 10 3
30 60 150 160 10 1
50 35 130 159 10 3
30 25 82 139 10 1
15 10 172 182 10 2
10 20 42 162 10 2
15 60 137 202 10 2
45 65 55 106 10 2
65 35 62 72 10 2
65 20 39 108 10 3
45 30 53 82 10 3
35 40 11 43 10 1
41 37 134 161 10 1
64 42 80 90 10 1
40 60 144 173 10 1
31 52 51 61 10 2
35 69 172 210 10 3
65 55 52 107 10 1
63 65 27 147 10 2
2 60 65 118 10 1
20 20 151 161 10 3
5 5 57 172 10 2
60 12 85 95 10 1
23 3 163 173 10 1
8 56 90 119 10 1
6 68 99 109 10 3
47 47 190 222 10 2
49 58 80 121 10 1
27 43 14 134 10 2
37 31 19 139 10 3
57 29 106 116 10 2
63 23 42 162 10 3
21 24 77 126 10 1
12 24 100 110 10 1
24 58 67 96 10 1
67 5 105 177 10 3
37 47 74 127 10 1
49 42 97 217 10 1
53 43 15 25 10 2
61 52 173 208 10 3
57 48 50 170 10 3
56 37 20 140 10 3
55 54 87 207 10 3
4 18 112 157 10 2
26 52 14 134 10 1
26 35 87 97 10 2
31 67 200 210 10 3
3 6 0 240 5 4
5 52 0 240 5 4
41 25 0 240 5 4
4 43 0 240 5 4
76 66 0 240 5 4
0 1 0 0 0
0 1 0 0 0
0 0 0 0 0
0 0 0 0 0
0 1 0 0 0
0 1 0 0 0
0 1 0 0 0
0 1 0 0 0
0 0 0 1 0
0 0 0 0 0
0 0 0 1 0
0 0 0 1 0
0 0 0 1 0
0 0 0 1 0
0 0 0 0 0
0 0 0 0 0
0 0 0 0 0
0 0 1 0 0
0 0 0 0 0
0 0 0 0 0
0 0 0 0 0
0 0 1 0 0
0 0 1 0 0
0 0 0 0 0
0 0 0 0 0
0 0 0 0 0
0 0 0 0 1
0 0 0 0 1
0 0 0 0 1
0 0 0 0 1
0 0 0 0 0
0 0 0 0 1
0 0 0 0 0
0 0 0 0 1
0 0 0 0 1
0 0 0 0 0
0 0 0 0 0
0 0 0 0 1
0 0 0 0 0
0 0 0 0 0
0 0 0 0 0
0 0 0 0 0
0 0 0 0 0
0 0 0 0 1
0 1 0 0 0
0 1 0 0 0
0 0 0 1 0
0 0 1 0 0
0 0 1 0 0
0 0 0 0 0
0 0 0 0 0
0 0 1 0 0
0 1 0 0 0
0 0 0 0 1
0 0 0 0 0
0 0 1 0 0
0 0 0 0 0
1 0 0 0 0
1 0 0 0 0
0 1 0 0 0
0 0 0 0 1
0 0 1 0 0
0 0 1 0 0
0 0 1 0 0
0 0 0 0 0
0 0 0 0 0
0 0 0 0 0
0 0 0 0 0
0 1 0 0 0
0 1 0 0 0
0 0 0 0 0
0 0 0 0 1
0 0 0 0 0
0 0 1 0 0
1 0 0 0 0
0 0 0 0 0
0 0 0 0 0
0 0 0 0 0
0 1 0 0 0
0 0 1 0 0
0 0 0 0 0
0 0 1 0 0
0 0 1 0 0
0 0 1 0 0
0 0 1 0 0
0 0 0 0 0
0 0 0 0 0
0 0 0 0 0
0 0 1 0 0
0 0 0 0 0
0 0 0 0 0
0 0 1 0 0
0 0 0 0 1
0 0 0 0 1
0 0 1 0 0
0 0 0 0 1
1 0 0 0 0
0 0 0 0 0
0 0 1 0 0
0 1 0 0 0
